New structure                           
   1.00000000000000     
     0.0000000000000004    2.4769299702922467    2.4769299702922472
     2.4769299702922480   -0.0000000000000001    2.4769299702922480
     2.4769299702922480    2.4769299702922476   -0.0000000000000002
   La   H 
     1    10
Direct
  0.0000000000000000  0.0000000000000000 -0.0000000000000000
  0.6204011879742033  0.6204011879742033  0.6204011879742033
  0.3795988120257969  0.3795988120257969  0.3795988120257969
  0.6204011879742033  0.6204011879742033  0.1387964360773975
  0.3795988120257969  0.3795988120257969  0.8612035639226027
  0.6204011879742033  0.1387964360773975  0.6204011879742033
  0.3795988120257969  0.8612035639226027  0.3795988120257969
  0.1387964360773975  0.6204011879742033  0.6204011879742033
  0.8612035639226027  0.3795988120257969  0.3795988120257969
  0.2500000000000000  0.2500000000000000  0.2500000000000000
  0.7500000000000000  0.7500000000000000  0.7500000000000000
 
  0.00000000E+00  0.00000000E+00  0.00000000E+00
  0.00000000E+00  0.00000000E+00  0.00000000E+00
  0.00000000E+00  0.00000000E+00  0.00000000E+00
  0.00000000E+00  0.00000000E+00  0.00000000E+00
  0.00000000E+00  0.00000000E+00  0.00000000E+00
  0.00000000E+00  0.00000000E+00  0.00000000E+00
  0.00000000E+00  0.00000000E+00  0.00000000E+00
  0.00000000E+00  0.00000000E+00  0.00000000E+00
  0.00000000E+00  0.00000000E+00  0.00000000E+00
  0.00000000E+00  0.00000000E+00  0.00000000E+00
  0.00000000E+00  0.00000000E+00  0.00000000E+00
