New structure
1.0
        0.0000000000         2.5399998874         2.5399998874
        2.5399998874         0.0000000000         2.5399998874
        2.5399998874         2.5399998874         0.0000000000
   La    H
    1   10
Direct
     0.000000000         0.000000000         0.000000000
     0.621999979         0.621999979         0.621999979
     0.378000021         0.378000021         0.378000021
     0.621999979         0.621999979         0.134000063
     0.378000021         0.378000021         0.865999937
     0.621999979         0.134000063         0.621999979
     0.378000021         0.865999937         0.378000021
     0.134000063         0.621999979         0.621999979
     0.865999937         0.378000021         0.378000021
     0.250000000         0.250000000         0.250000000
     0.750000000         0.750000000         0.750000000
