R-3m LaH10                              
   1.00000000000000     
     1.7920159255233350    1.0346208745725269    2.7401411613203610
    -1.7920159255233024    1.0346208745725245    2.7401411613203366
     0.0000000000000145   -2.0692417625843005    2.7401411663561843
   La   H 
     1    10
Direct
  0.5000000000000000  0.5000000000000000  0.5000000000000000
  0.0992799216704473  0.0992799216704473  0.0992799216704473
  0.9007200783295520  0.9007200783295520  0.9007200783295520
  0.1071781289890157  0.6151916460545681  0.1071781289890157
  0.8928218860109816  0.3848083539454323  0.8928218860109816
  0.1071781289890157  0.1071781289890157  0.6151916460545681
  0.8928218860109816  0.8928218860109816  0.3848083539454323
  0.6151916460545681  0.1071781289890157  0.1071781289890157
  0.3848083539454323  0.8928218860109816  0.8928218860109816
  0.7438596981957236  0.7438596981957236  0.7438596981957236
  0.2561403018042760  0.2561403018042760  0.2561403018042760
 
  0.00000000E+00  0.00000000E+00  0.00000000E+00
  0.00000000E+00  0.00000000E+00  0.00000000E+00
  0.00000000E+00  0.00000000E+00  0.00000000E+00
  0.00000000E+00  0.00000000E+00  0.00000000E+00
  0.00000000E+00  0.00000000E+00  0.00000000E+00
  0.00000000E+00  0.00000000E+00  0.00000000E+00
  0.00000000E+00  0.00000000E+00  0.00000000E+00
  0.00000000E+00  0.00000000E+00  0.00000000E+00
  0.00000000E+00  0.00000000E+00  0.00000000E+00
  0.00000000E+00  0.00000000E+00  0.00000000E+00
  0.00000000E+00  0.00000000E+00  0.00000000E+00
