R-3m LaH10
1.0
        1.8299999846         1.0565509837         2.8433332491
       -1.8299999846         1.0565509837         2.8433332491
        0.0000000000        -2.1131019675         2.8433332491
   La    H
    1   10
Direct
     0.500000000         0.500000000         0.500000000
     0.097000003         0.097000003         0.097000003
     0.902999997         0.902999997         0.902999997
     0.107999995         0.611999989         0.107999995
     0.892000020         0.388000011         0.892000020
     0.107999995         0.107999995         0.611999989
     0.892000020         0.892000020         0.388000011
     0.611999989         0.107999995         0.107999995
     0.388000011         0.892000020         0.892000020
     0.740999997         0.740999997         0.740999997
     0.259000003         0.259000003         0.259000003
